5	4
3	3	1	12	3	14	2	14	3	2	24	4	20	3	20	3	4	18	2	20	1	20
3	3	1	36	3	32	2	34	3	3	12	2	14	4	16	3	2	30	1	32	3	28
3	3	3	18	1	22	4	20	3	4	6	3	8	2	10	3	1	24	2	18	3	22
2	3	4	12	2	16	3	14	3	2	30	3	26	1	28
2	3	3	6	4	10	2	8	3	1	18	2	14	4	16
0	1	2	5	6
6	0	1	4	5
5	6	0	3	4
2	3	4	0	1
1	2	3	6	0
